% seed = 9223311

mint = 38;
% maxt = 113;

nActs = 22;
dur = [0,3,5,6,3,3,9,3,10,6,4,8,2,6,5,5,4,8,9,4,10,0];

nSkills = 4;
sreq = [| 0,0,0,0,
	| 1,2,0,0,
	| 3,0,0,3,
	| 1,0,1,0,
	| 1,2,0,0,
	| 1,0,0,1,
	| 3,0,3,0,
	| 0,1,0,2,
	| 3,3,0,0,
	| 2,3,0,0,
	| 0,0,2,2,
	| 3,0,1,0,
	| 0,1,2,0,
	| 0,3,1,0,
	| 0,2,1,0,
	| 1,0,0,3,
	| 0,0,3,3,
	| 0,3,0,2,
	| 3,1,0,0,
	| 0,0,1,1,
	| 2,0,3,0,
	| 0,0,0,0, |];

nResources = 15;
mastery = [| false,false,true,false,
	| true,true,false,true,
	| false,true,true,false,
	| false,false,false,true,
	| false,false,true,true,
	| false,true,true,true,
	| true,false,true,false,
	| false,true,false,false,
	| true,true,true,false,
	| true,false,false,false,
	| true,true,false,true,
	| false,true,true,false,
	| false,true,false,false,
	| false,true,false,false,
	| false,false,false,true, |];

nPrecs = 37;
pred = [1,1,1,2,2,3,3,3,4,4,4,5,6,6,6,7,8,8,8,9,9,10,10,11,11,11,12,12,13,14,15,16,17,18,19,20,21];
succ = [2,3,4,10,13,17,12,7,10,5,6,15,9,11,14,8,10,13,15,18,21,20,16,19,20,15,18,16,18,17,21,21,19,20,22,22,22];

nUnrels = 111;
unpred = [2,2,2,2,2,2,2,2,2,2,2,2,2,3,3,3,3,3,3,4,4,4,4,5,5,5,5,5,5,5,5,5,5,5,5,5,5,6,6,6,6,6,6,7,7,7,7,7,7,8,8,8,8,8,8,9,9,9,9,9,9,9,9,9,10,10,10,10,10,10,10,10,11,11,11,11,11,11,12,12,12,12,12,13,13,13,13,13,13,14,14,14,14,14,15,15,15,15,15,16,16,16,16,17,17,17,18,18,19,19,20];
unsucc = [3,4,5,6,7,8,9,11,12,14,15,17,19,4,5,6,9,11,14,7,8,12,13,6,7,8,9,10,11,12,13,14,16,17,18,19,20,7,8,10,12,13,16,9,11,12,14,17,19,9,11,12,14,17,19,10,11,12,13,14,15,16,17,19,11,12,13,14,15,17,18,19,12,13,14,16,17,18,13,14,15,17,19,14,15,16,17,19,21,15,16,18,20,21,16,17,18,19,20,17,18,19,20,18,20,21,19,21,20,21,21];

USEFUL_RES = [{},
	{2,3,6,7,8,9,10,11,12,13,14},
	{2,4,5,6,7,9,10,11,15},
	{1,2,3,5,6,7,9,10,11,12},
	{2,3,6,7,8,9,10,11,12,13,14},
	{2,4,5,6,7,9,10,11,15},
	{1,2,3,5,6,7,9,10,11,12},
	{2,3,4,5,6,8,9,11,12,13,14,15},
	{2,3,6,7,8,9,10,11,12,13,14},
	{2,3,6,7,8,9,10,11,12,13,14},
	{1,2,3,4,5,6,7,9,11,12,15},
	{1,2,3,5,6,7,9,10,11,12},
	{1,2,3,5,6,7,8,9,11,12,13,14},
	{1,2,3,5,6,7,8,9,11,12,13,14},
	{1,2,3,5,6,7,8,9,11,12,13,14},
	{2,4,5,6,7,9,10,11,15},
	{1,2,3,4,5,6,7,9,11,12,15},
	{2,3,4,5,6,8,9,11,12,13,14,15},
	{2,3,6,7,8,9,10,11,12,13,14},
	{1,2,3,4,5,6,7,9,11,12,15},
	{1,2,3,5,6,7,9,10,11,12},
	{}];

POTENTIAL_ACT = [{4,7,11,12,13,14,15,17,20,21},
	{2,3,4,5,6,7,8,9,10,11,12,13,14,15,16,17,18,19,20,21},
	{2,4,5,7,8,9,10,11,12,13,14,15,17,18,19,20,21},
	{3,6,8,11,16,17,18,20},
	{3,4,6,7,8,11,12,13,14,15,16,17,18,20,21},
	{2,3,4,5,6,7,8,9,10,11,12,13,14,15,16,17,18,19,20,21},
	{2,3,4,5,6,7,9,10,11,12,13,14,15,16,17,19,20,21},
	{2,5,8,9,10,13,14,15,18,19},
	{2,3,4,5,6,7,8,9,10,11,12,13,14,15,16,17,18,19,20,21},
	{2,3,4,5,6,7,9,10,12,16,19,21},
	{2,3,4,5,6,7,8,9,10,11,12,13,14,15,16,17,18,19,20,21},
	{2,4,5,7,8,9,10,11,12,13,14,15,17,18,19,20,21},
	{2,5,8,9,10,13,14,15,18,19},
	{2,5,8,9,10,13,14,15,18,19},
	{3,6,8,11,16,17,18,20}];
